p edges 30 109
e 1 2
e 1 6
e 1 7
e 1 12
e 1 17
e 1 22
e 1 27
e 2 3
e 2 7
e 2 8
e 2 13
e 2 18
e 2 23
e 2 28
e 3 4
e 3 8
e 3 9
e 3 14
e 3 19
e 3 24
e 3 29
e 4 5
e 4 9
e 4 10
e 4 15
e 4 20
e 4 25
e 4 30
e 5 10
e 6 7
e 6 11
e 6 12
e 6 17
e 6 22
e 6 27
e 7 8
e 7 12
e 7 13
e 7 18
e 7 23
e 7 28
e 8 9
e 8 13
e 8 14
e 8 19
e 8 24
e 8 29
e 9 10
e 9 14
e 9 15
e 9 20
e 9 25
e 9 30
e 10 15
e 11 12
e 11 16
e 11 17
e 11 22
e 11 27
e 12 13
e 12 17
e 12 18
e 12 23
e 12 28
e 13 14
e 13 18
e 13 19
e 13 24
e 13 29
e 14 15
e 14 19
e 14 20
e 14 25
e 14 30
e 15 20
e 16 17
e 16 21
e 16 22
e 16 27
e 17 18
e 17 22
e 17 23
e 17 28
e 18 19
e 18 23
e 18 24
e 18 29
e 19 20
e 19 24
e 19 25
e 19 30
e 20 25
e 21 22
e 21 26
e 21 27
e 22 23
e 22 27
e 22 28
e 23 24
e 23 28
e 23 29
e 24 25
e 24 29
e 24 30
e 25 30
e 26 27
e 27 28
e 28 29
e 29 30